/* Objective function */
min: 13 x11 + 16 x12 + 12 x13 + 11 x14 + 15 x21 + 1000 x22 + 13 x23 + 20 x24 + 5 x31 + 7 x32 + 10 x33 + 6 x34;

/* Constraints */
x11 + x12 + x13 + x14 = 1;
x21 + x22 + x23 + x24 = 1;
x31 + x32 + x33 + x34 = 1;
x41 + x42 + x43 + x44 = 1;
x11 + x21 + x31 + x41 = 1;
x12 + x22 + x32 + x42 = 1;
x13 + x23 + x33 + x43 = 1;
x14 + x24 + x34 + x44 = 1;
